(declare-const term_to_project_onto Real)
(declare-const term_to_project_onto0 Real)
(assert (exists ((phi_y?1 Int) (|y'?2| Int) (|x'?3| Int) (y?4 Int) (x?5 Int))
         (and (<= (+ (- y?4) 1) 0) (<= (- x?5) 0) (<= (+ x?5 -999999) 0)
                (or (and (<= (+ (- x?5) 500000) 0)
                           (= (+ (- phi_y?1) y?4 1) 0))
                      (and (<= (+ x?5 -499999) 0) (= (+ (- phi_y?1) y?4) 0)))
                (= (+ |y'?2| (- phi_y?1)) 0) (= (+ |x'?3| (- x?5) -1) 0)
                (= term_to_project_onto0 (+ |x'?3| (- x?5)))
                (= term_to_project_onto (+ |y'?2| (- y?4))))))
(check-sat)
